<instance format="XCSP3" type="COP">
  <variables>
    <array id="x" size="[50]"> 0 1 </array>
  </variables>
  <constraints>
    <sum>
      <list> x[] </list>
      <coeffs> 38 43 25 25 7 6 5 42 23 22 32 4 48 11 29 41 29 16 18 18 9 16 9 7 12 3 31 48 16 21 40 43 8 30 8 31 47 44 20 34 35 2 21 8 42 49 3 43 4 46 </coeffs>
      <condition> (le,200) </condition>
    </sum>
  </constraints>
  <objectives>
    <maximize type="sum">
      <list> x[] </list>
      <coeffs> 26 6 13 38 4 13 60 1 48 32 100 52 8 27 99 66 34 98 45 19 50 37 59 31 56 58 70 61 14 100 66 74 85 64 57 92 89 7 92 38 44 12 1 2 1 86 28 70 55 61 </coeffs>
    </maximize>
  </objectives>
</instance>
